c read Graph
c width = 437
c time = 595 ms
c width = 23
c time = 848 ms
c width = 22
c time = 3133 ms
c width = 21
c time = 4767 ms
c width = 20
c time = 14268 ms
c width = 19
c time = 15722 ms
c width = 18
c time = 21279 ms
c width = 17
c time = 32376 ms
c width = 16
c time = 57535 ms
c width = 16
c time = 59131 ms
s td 481 17 512
b 1 31 32
b 2 481 482
b 3 1 2 3
b 4 1 3 34
b 5 27 29 62 63
b 6 27 61 62 63
b 7 27 61 63 95
b 8 61 93 94 95
b 9 418 450 451 484
b 10 418 451 452 484
b 11 418 452 484 486
b 12 27 59 60 61
b 13 418 419 420 452
b 14 452 453 454 486
b 15 3 5 34 36
b 16 5 7 34 36 38
b 17 7 9 34 36 38 40
b 18 9 13 34 36 38 40 42 44
b 19 13 15 34 36 38 40 42 44 46
b 20 15 17 34 36 38 40 42 44 46 48
b 21 17 19 34 36 38 40 42 44 46 48 50
b 22 19 21 34 36 38 40 42 44 46 48 50 52
b 23 21 34 36 38 40 42 44 46 48 50 52 86 88 122 156 158 191
b 24 34 36 38 40 42 44 46 48 50 52 84 86 88 122 156 158 191
b 25 34 36 38 40 42 44 46 48 50 82 84 86 88 122 156 158 191
b 26 34 36 38 40 42 44 46 47 48 82 84 86 88 122 156 158 191
b 27 34 36 38 40 42 44 45 46 47 82 84 86 88 122 156 158 191
b 28 34 36 38 40 42 43 44 45 47 82 84 86 88 122 156 158 191
b 29 34 36 38 40 41 42 43 45 47 82 84 86 88 122 156 158 191
b 30 34 36 38 39 40 41 43 45 47 82 84 86 88 122 156 158 191
b 31 34 36 37 38 39 41 43 45 47 82 84 86 88 122 156 158 191
b 32 34 35 36 37 39 41 43 45 47 82 84 86 88 122 156 158 191
b 33 34 35 37 39 41 43 45 47 66 82 84 86 88 122 156 158 191
b 34 35 37 39 41 43 45 47 66 68 82 84 86 88 122 156 158 191
b 35 37 39 41 43 45 47 66 68 70 82 84 86 88 122 156 158 191
b 36 39 41 43 45 47 66 68 70 72 82 84 86 88 122 156 158 191
b 37 41 43 45 47 66 68 70 72 74 82 84 86 88 122 156 158 191
b 38 43 45 47 66 68 70 72 74 76 82 84 86 88 122 156 158 191
b 39 45 47 66 68 70 72 74 76 78 82 84 86 88 122 156 158 191
b 40 47 66 68 70 72 74 76 78 80 82 84 86 88 122 156 158 191
b 41 66 68 70 72 74 76 78 80 82 84 86 87 88 122 156 158 191
b 42 66 68 70 72 74 76 78 80 82 84 85 86 87 122 156 158 191
b 43 66 68 70 72 74 76 78 80 82 83 84 85 87 122 156 158 191
b 44 66 68 70 72 74 76 78 80 81 82 83 85 87 122 156 158 191
b 45 66 68 70 72 74 76 78 79 80 81 83 85 87 122 156 158 191
b 46 66 68 70 72 74 76 77 78 79 81 83 85 87 122 156 158 191
b 47 66 68 70 72 74 75 76 77 79 81 83 85 87 122 156 158 191
b 48 66 68 70 72 73 74 75 77 79 81 83 85 87 122 156 158 191
b 49 66 68 70 71 72 73 75 77 79 81 83 85 87 122 156 158 191
b 50 66 68 69 70 71 73 75 77 79 81 83 85 87 122 156 158 191
b 51 66 67 68 69 71 73 75 77 79 81 83 85 87 122 156 158 191
b 52 66 67 69 71 73 75 77 79 81 83 85 87 98 122 156 158 191
b 53 67 69 71 73 75 77 79 81 83 85 87 98 100 122 156 158 191
b 54 69 71 73 75 77 79 81 83 85 87 98 100 102 122 156 158 191
b 55 71 73 75 77 79 81 83 85 87 98 100 102 104 122 156 158 191
b 56 73 75 77 79 81 83 85 87 98 100 102 104 106 122 156 158 191
b 57 75 77 79 81 83 85 87 98 100 102 104 106 108 122 156 158 191
b 58 77 79 81 83 85 87 98 100 102 104 106 108 110 122 156 158 191
b 59 79 81 83 85 87 98 100 102 104 106 108 110 112 122 156 158 191
b 60 81 83 85 87 98 100 102 104 106 108 110 112 114 122 156 158 191
b 61 83 85 87 98 100 102 104 106 108 110 112 114 116 122 156 158 191
b 62 85 87 98 100 102 104 106 108 110 112 114 116 118 122 156 158 191
b 63 87 98 100 102 104 106 108 110 112 114 116 118 120 122 156 158 191
b 64 98 100 102 104 106 108 110 112 114 116 118 120 122 154 156 158 191
b 65 98 100 102 104 106 108 110 112 114 116 118 119 120 154 156 158 191
b 66 98 100 102 104 106 108 110 112 114 116 117 118 119 154 156 158 191
b 67 98 100 102 104 106 108 110 112 114 115 116 117 119 154 156 158 191
b 68 98 100 102 104 106 108 110 112 113 114 115 117 119 154 156 158 191
b 69 98 100 102 104 106 108 110 111 112 113 115 117 119 154 156 158 191
b 70 98 100 102 104 106 108 109 110 111 113 115 117 119 154 156 158 191
b 71 98 100 102 104 106 107 108 109 111 113 115 117 119 154 156 158 191
b 72 98 100 102 104 105 106 107 109 111 113 115 117 119 154 156 158 191
b 73 98 100 102 103 104 105 107 109 111 113 115 117 119 154 156 158 191
b 74 98 100 101 102 103 105 107 109 111 113 115 117 119 154 156 158 191
b 75 98 100 101 103 105 107 109 111 113 115 117 119 134 154 156 158 191
b 76 98 100 103 105 107 109 111 113 115 117 119 134 136 154 156 158 191
b 77 98 100 105 107 109 111 113 115 117 119 134 136 138 154 156 158 191
b 78 98 100 107 109 111 113 115 117 119 134 136 138 140 154 156 158 191
b 79 98 100 109 111 113 115 117 119 134 136 138 140 142 154 156 158 191
b 80 98 100 111 113 115 117 119 134 136 138 140 142 144 154 156 158 191
b 81 98 100 113 115 117 119 134 136 138 140 142 144 146 154 156 158 191
b 82 98 100 115 117 119 134 136 138 140 142 144 146 148 154 156 158 191
b 83 98 100 117 119 134 136 138 140 142 144 146 148 150 154 156 158 191
b 84 98 100 119 134 136 138 140 142 144 146 148 150 152 154 156 158 191
b 85 98 100 134 136 138 140 142 144 146 148 150 152 154 156 158 190 191
b 86 98 100 134 136 138 140 142 144 146 148 150 152 154 155 156 190 191
b 87 98 100 134 136 138 140 142 144 146 148 150 152 153 154 155 190 191
b 88 98 100 134 136 138 140 142 144 146 148 150 151 152 153 155 190 191
b 89 98 100 134 136 138 140 142 144 146 148 149 150 151 153 155 190 191
b 90 98 100 134 136 138 140 142 144 146 147 148 149 151 153 155 190 191
b 91 98 100 134 136 138 140 142 144 145 146 147 149 151 153 155 190 191
b 92 98 100 134 136 138 140 142 143 144 145 147 149 151 153 155 190 191
b 93 98 100 134 136 138 140 141 142 143 145 147 149 151 153 155 190 191
b 94 98 100 134 136 138 139 140 141 143 145 147 149 151 153 155 190 191
b 95 98 100 134 136 137 138 139 141 143 145 147 149 151 153 155 190 191
b 96 98 100 134 135 136 137 139 141 143 145 147 149 151 153 155 190 191
b 97 98 100 134 135 137 139 141 143 145 147 149 151 153 155 168 190 191
b 98 98 100 134 137 139 141 143 145 147 149 151 153 155 168 170 190 191
b 99 98 100 134 139 141 143 145 147 149 151 153 155 168 170 172 190 191
b 100 98 100 134 141 143 145 147 149 151 153 155 168 170 172 174 190 191
b 101 98 100 134 143 145 147 149 151 153 155 168 170 172 174 176 190 191
b 102 98 100 134 145 147 149 151 153 155 168 170 172 174 176 178 190 191
b 103 98 100 134 147 149 151 153 155 168 170 172 174 176 178 180 190 191
b 104 98 100 134 149 151 153 155 168 170 172 174 176 178 180 182 190 191
b 105 98 100 134 151 153 155 168 170 172 174 176 178 180 182 184 190 191
b 106 98 100 134 153 155 168 170 172 174 176 178 180 182 184 186 190 191
b 107 98 100 134 155 168 170 172 174 176 178 180 182 184 186 188 190 191
b 108 98 100 134 168 170 172 174 176 178 180 182 184 186 188 189 190 191
b 109 98 100 134 168 170 172 174 176 178 180 182 184 186 187 188 189 191
b 110 98 100 134 168 170 172 174 176 178 180 182 184 185 186 187 189 191
b 111 98 100 134 168 170 172 174 176 178 180 182 183 184 185 187 189 191
b 112 98 100 134 168 170 172 174 176 178 180 181 182 183 185 187 189 191
b 113 98 100 134 168 170 172 174 176 178 179 180 181 183 185 187 189 191
b 114 98 100 134 168 170 172 174 176 177 178 179 181 183 185 187 189 191
b 115 98 100 134 168 170 172 174 176 177 179 181 183 185 187 189 191 208
b 116 98 100 134 168 170 172 173 174 177 179 181 183 185 187 189 191 208
b 117 98 100 134 168 170 171 172 173 177 179 181 183 185 187 189 191 208
b 118 98 100 134 168 170 171 173 177 179 181 183 185 187 189 191 202 208
b 119 98 100 134 168 171 173 177 179 181 183 185 187 189 191 202 204 208
b 120 98 100 134 168 173 177 179 181 183 185 187 189 191 202 204 206 208
b 121 98 100 134 168 177 179 181 183 185 187 189 191 202 204 206 208 210
b 122 98 100 134 168 179 181 183 185 187 189 191 202 204 206 208 210 212
b 123 98 100 134 168 181 183 185 187 189 191 202 204 206 208 210 212 214
b 124 98 100 134 168 183 185 187 189 191 202 204 206 208 210 212 214 216
b 125 98 100 134 168 185 187 189 191 202 204 206 208 210 212 214 216 218
b 126 98 100 134 168 187 189 191 202 204 206 208 210 212 214 216 218 220
b 127 98 100 134 168 189 191 202 204 206 208 210 212 214 216 218 220 222
b 128 98 100 134 168 191 202 204 206 208 210 212 214 216 218 220 222 255
b 129 98 100 134 168 202 204 206 208 210 212 214 216 218 220 221 222 255
b 130 98 100 134 168 202 204 206 208 210 212 214 216 218 219 220 221 255
b 131 98 100 134 168 202 204 206 208 210 212 214 216 217 218 219 221 255
b 132 98 100 134 168 202 204 206 208 210 212 214 215 216 217 219 221 255
b 133 98 100 134 168 202 204 206 208 210 212 213 214 215 217 219 221 255
b 134 98 100 134 168 202 204 206 208 210 212 213 215 217 219 221 246 255
b 135 98 100 134 168 202 204 206 208 210 212 215 217 219 221 246 248 255
b 136 98 100 134 168 202 204 206 208 210 212 217 219 221 246 248 250 255
b 137 98 100 134 168 202 204 206 208 210 212 219 221 246 248 250 252 255
b 138 98 100 134 168 202 204 206 208 210 212 221 246 248 250 252 254 255
b 139 98 100 132 134 168 202 204 206 208 210 212 246 248 250 252 254 255
b 140 98 132 133 134 168 202 204 206 208 210 212 246 248 250 252 254 255
b 141 98 131 132 133 168 202 204 206 208 210 212 246 248 250 252 254 255
b 142 98 131 133 162 168 202 204 206 208 210 212 246 248 250 252 254 255
b 143 131 133 162 164 168 202 204 206 208 210 212 246 248 250 252 254 255
b 144 133 162 164 166 168 202 204 206 208 210 212 246 248 250 252 254 255
b 145 162 164 166 167 168 202 204 206 208 210 212 246 248 250 252 254 255
b 146 162 164 166 167 200 202 204 206 208 210 212 246 248 250 252 254 255
b 147 162 164 166 200 202 204 206 208 210 212 244 246 248 250 252 254 255
b 148 162 164 166 200 202 204 206 208 210 242 244 246 248 250 252 254 255
b 149 162 164 166 200 202 204 206 207 208 242 244 246 248 250 252 254 255
b 150 162 164 166 200 202 204 205 206 207 242 244 246 248 250 252 254 255
b 151 162 164 166 200 202 203 204 205 207 242 244 246 248 250 252 254 255
b 152 162 164 166 200 201 202 203 205 207 242 244 246 248 250 252 254 255
b 153 162 164 166 199 200 201 203 205 207 242 244 246 248 250 252 254 255
b 154 162 164 166 199 201 203 205 207 234 242 244 246 248 250 252 254 255
b 155 162 164 166 199 203 205 207 234 236 242 244 246 248 250 252 254 255
b 156 162 164 166 199 205 207 234 236 238 242 244 246 248 250 252 254 255
b 157 162 164 166 199 207 234 236 238 240 242 244 246 248 250 252 254 255
b 158 162 164 166 199 234 236 238 240 242 244 246 248 250 252 253 254 255
b 159 162 164 166 199 234 236 238 240 242 244 246 248 250 251 252 253 255
b 160 162 164 166 199 234 236 238 240 242 244 246 248 249 250 251 253 255
b 161 162 164 166 199 234 236 238 240 242 244 246 247 248 249 251 253 255
b 162 162 164 166 199 234 236 238 240 242 244 245 246 247 249 251 253 255
b 163 162 164 166 199 234 236 238 240 242 243 244 245 247 249 251 253 255
b 164 162 164 166 199 234 236 238 240 241 242 243 245 247 249 251 253 255
b 165 162 164 166 199 234 236 238 239 240 241 243 245 247 249 251 253 255
b 166 162 164 166 199 234 236 237 238 239 241 243 245 247 249 251 253 255
b 167 162 164 166 199 234 235 236 237 239 241 243 245 247 249 251 253 255
b 168 162 164 166 199 234 235 237 239 241 243 245 247 249 251 253 255 268
b 169 162 164 166 199 234 237 239 241 243 245 247 249 251 253 255 268 270
b 170 162 164 166 199 234 239 241 243 245 247 249 251 253 255 268 270 272
b 171 162 164 166 199 234 241 243 245 247 249 251 253 255 268 270 272 274
b 172 162 164 166 199 234 243 245 247 249 251 253 255 268 270 272 274 276
b 173 162 164 166 199 234 245 247 249 251 253 255 268 270 272 274 276 278
b 174 162 164 166 199 234 247 249 251 253 255 268 270 272 274 276 278 280
b 175 162 164 166 199 234 249 251 253 255 268 270 272 274 276 278 280 282
b 176 162 164 166 199 234 251 253 255 268 270 272 274 276 278 280 282 284
b 177 162 164 166 199 234 253 255 268 270 272 274 276 278 280 282 284 286
b 178 162 164 166 199 234 255 268 270 272 274 276 278 280 282 284 286 287
b 179 162 164 166 199 234 268 270 272 274 276 278 280 282 284 285 286 287
b 180 162 164 166 199 234 268 270 272 274 276 278 280 282 283 284 285 287
b 181 162 164 166 199 234 268 270 272 274 276 278 280 281 282 283 285 287
b 182 162 164 166 199 234 268 270 272 274 276 278 279 280 281 283 285 287
b 183 162 164 166 199 234 268 270 272 274 276 277 278 279 281 283 285 287
b 184 162 164 166 199 234 268 270 272 274 275 276 277 279 281 283 285 287
b 185 162 164 166 199 234 268 270 272 273 274 275 277 279 281 283 285 287
b 186 162 164 166 199 234 268 270 272 273 275 277 279 281 283 285 287 306
b 187 162 164 166 199 234 268 270 272 275 277 279 281 283 285 287 306 308
b 188 162 164 166 199 234 268 270 272 277 279 281 283 285 287 306 308 310
b 189 162 164 166 199 234 268 270 272 279 281 283 285 287 306 308 310 312
b 190 162 164 166 199 234 268 270 272 281 283 285 287 306 308 310 312 314
b 191 162 164 166 199 234 268 270 272 283 285 287 306 308 310 312 314 316
b 192 162 164 166 199 234 268 270 272 285 287 306 308 310 312 314 316 318
b 193 162 164 166 199 234 268 270 272 287 306 308 310 312 314 316 318 319
b 194 162 164 166 199 234 268 270 272 306 308 310 312 314 316 318 319 350
b 195 316 317 318 319 350
b 196 162 164 166 198 199 234 268 270 272 306 308 310 312 314 316 319 350
b 197 162 164 198 199 234 268 270 272 306 308 310 312 314 316 319 348 350
b 198 162 164 198 199 234 268 270 272 306 308 310 312 314 319 346 348 350
b 199 162 164 198 199 234 268 270 272 306 308 310 312 319 344 346 348 350
b 200 162 164 198 199 234 268 270 272 306 308 310 319 342 344 346 348 350
b 201 162 164 196 198 199 234 268 270 272 306 308 319 342 344 346 348 350
b 202 162 196 198 199 232 234 268 270 272 306 308 319 342 344 346 348 350
b 203 162 196 198 232 234 268 270 272 306 308 319 340 342 344 346 348 350
b 204 306 308 319 340 342 344 346 348 350
b 205 306 307 308 340
b 206 162 196 198 232 234 268 270 272 306 319 340 342 344 346 348 350 351
b 207 162 196 198 232 234 268 270 272 306 340 342 344 346 348 350 351 382
b 208 162 196 198 232 234 268 270 272 306 340 342 344 346 347 348 351 382
b 209 162 196 198 232 234 268 270 272 306 340 342 344 346 347 351 378 382
b 210 162 196 198 232 234 268 270 272 306 340 342 344 347 351 378 380 382
b 211 162 196 198 232 234 268 270 272 306 340 342 344 351 378 380 382 383
b 212 162 196 198 232 234 268 270 272 306 340 342 344 378 380 382 383 414
b 213 162 196 198 232 234 268 270 272 306 340 342 344 378 380 383 412 414
b 214 162 196 198 232 234 268 270 272 306 340 342 344 378 383 412 414 447
b 215 162 196 198 232 234 268 270 272 306 340 342 344 378 412 414 446 447
b 216 412 413 414 446 447
b 217 162 196 198 232 234 268 270 272 306 340 342 344 378 412 446 447 479
b 218 162 196 198 232 234 268 270 272 306 340 342 344 378 412 445 446 479
b 219 162 196 198 232 234 268 270 272 306 340 342 344 378 411 412 445 479
b 220 162 196 198 232 234 268 270 272 306 340 342 344 376 378 411 445 479
b 221 162 196 198 232 234 268 270 272 306 340 342 376 378 410 411 445 479
b 222 162 196 198 232 234 268 270 272 306 340 342 376 410 411 444 445 479
b 223 162 196 198 232 234 268 270 272 306 340 342 376 410 444 445 478 479
b 224 162 196 198 232 234 268 270 272 306 340 342 376 410 444 478 479 510
b 225 162 196 198 232 234 268 270 272 306 340 342 376 410 444 476 478 510
b 226 162 196 198 232 234 268 270 272 306 340 342 376 410 444 476 508 510
b 227 162 196 198 232 234 268 270 272 306 340 342 376 410 442 444 476 508
b 228 162 196 198 232 234 268 270 272 306 340 342 376 410 442 474 476 508
b 229 162 196 198 232 234 268 270 272 306 340 342 376 408 410 442 474 508
b 230 162 196 198 232 234 268 270 272 306 340 342 376 408 440 442 474 508
b 231 162 196 198 232 234 268 270 272 306 340 342 375 376 408 440 474 508
b 232 162 196 198 232 234 268 270 272 306 340 342 375 406 408 440 474 508
b 233 162 196 198 232 234 268 270 272 306 340 342 374 375 406 440 474 508
b 234 340 341 342 374
b 235 162 196 198 232 234 268 270 272 306 340 372 374 406 440 474 508
b 236 372 373 374 406
b 237 162 196 198 232 234 266 268 270 272 306 340 372 406 440 474 508
b 238 232 233 234 266
b 239 162 196 198 232 266 268 270 272 306 338 340 372 406 440 474 508
b 240 338 339 340 372
b 241 162 196 198 232 266 268 270 272 302 306 336 338 372 406 440 474 508
b 242 162 196 198 232 266 268 272 302 306 336 338 370 372 406 440 474 508
b 243 336 337 338 370
b 244 162 196 198 232 266 268 302 336 370 372 404 406 440 474 508
b 245 162 196 198 232 266 268 302 336 370 404 406 436 440 468 474 500 508
b 246 162 196 198 232 266 268 302 336 370 402 404 436 440 468 474 500 508
b 247 162 196 198 232 266 268 302 336 370 402 434 436 440 468 474 500 508
b 248 162 196 198 232 266 268 298 302 332 334 336 370 402 434 468 500
b 249 266 268 298 300 302 332 334
b 250 298 299 300 332
b 251 266 267 268 300
b 252 300 301 302 334
b 253 434 435 436 468
b 254 402 403 404 436
b 255 404 406 436 438 440 468 474 500 508
b 256 404 405 406 438
b 257 436 438 440 468 470 474 500 508
b 258 438 440 468 470 472 474 500 508
b 259 468 469 470 472 474 500 508
b 260 469 470 472 474 500 502 508
b 261 470 471 472 474 500 502 508
b 262 471 472 474 500 502 504 508
b 263 472 474 504 506 508
b 264 472 473 474 506
b 265 438 439 440 472
b 266 436 437 438 470
b 267 370 371 372 404
b 268 268 269 270 302
b 269 270 272 302 304 306 336 338
b 270 304 305 306 338
b 271 270 271 272 304
b 272 302 303 304 336
b 273 406 407 408 440
b 274 440 441 442 474
b 275 408 409 410 442
b 276 474 475 476 508
b 277 442 443 444 476
b 278 476 477 478 510
b 279 376 377 378 410
b 280 342 343 344 376
b 281 383 414 415 447
b 282 378 379 380 412
b 283 380 381 382 414
b 284 344 345 346 378
b 285 348 349 350 382
b 286 162 163 164 196
b 287 308 309 310 342
b 288 310 311 312 344
b 289 312 313 314 346
b 290 314 315 316 348
b 291 164 165 166 198
b 292 208 209 210 242
b 293 210 211 212 244
b 294 98 130 131 162
b 295 98 99 100 132
b 296 191 222 223 255
b 297 168 169 170 202
b 298 174 175 176 208
b 299 156 157 158 190
b 300 120 121 122 154
b 301 48 49 50 82
b 302 50 51 52 84
b 303 21 52 56 86 88 122 156 158 191
b 304 21 56 88 122 124 156 158 191
b 305 21 56 88 90 122 124 158 191
b 306 88 89 90 122
b 307 21 56 90 124 127 158 191
b 308 127 158 159 191
b 309 21 25 56 90 124 127 158
b 310 25 56 90 93 124 127 158
b 311 93 124 125 127 158
b 312 93 125 126 127
b 313 25 56 59 90 93 124 127
b 314 25 56 58 59 90
b 315 56 57 58 90
b 316 25 59 93 95 127
b 317 25 27 59 93 95
b 318 27 59 61 93 95
b 319 59 90 91 93 124
b 320 59 91 92 93
b 321 21 23 25 56
b 322 122 123 124 156
b 323 21 52 54 56 86 88
b 324 52 53 54 86
b 325 54 55 56 88
b 326 9 11 13 44
b 327 162 196 198 230 232 266 298 332 334 336 370 402 434 468 500
b 328 162 196 230 232 262 266 290 292 294 296 298
b 329 162 196 230 232 266 290 292 294 296 298 332 366 400 434 468 500
b 330 162 196 230 232 266 298 332 334 336 366 370 400 402 434 468 500
b 331 290 292 294 296 298 332 366 400 428 434 460 468 492 500
b 332 290 292 294 296 298 332 366 396 398 400 428 434 460 468 492 500
b 333 396 398 400 428 432 434 460 468 492 500
b 334 396 398 428 432 434 460 464 468 492 496 500
b 335 396 398 428 430 432 460 464 492 496
b 336 428 430 460 462 464 492 496
b 337 462 463 464 496
b 338 460 462 492 494 496
b 339 460 461 462 494
b 340 428 429 430 462
b 341 430 431 432 464
b 342 396 397 398 430
b 343 432 434 464 466 468 496 500
b 344 464 466 496 498 500
b 345 464 465 466 498
b 346 466 467 468 500
b 347 432 433 434 466
b 348 398 399 400 432
b 349 290 292 294 296 298 330 332 366 396 398 428 460 492
b 350 296 297 298 330
b 351 290 292 294 296 330 332 362 366 396 398 428 460 492
b 352 330 332 362 364 366 396 398
b 353 362 363 364 396
b 354 364 365 366 398
b 355 330 331 332 364
b 356 290 292 294 296 326 330 360 362 396 428 460 492
b 357 294 296 326 328 330 360 362
b 358 294 295 296 328
b 359 328 329 330 362
b 360 326 327 328 360
b 361 292 293 294 326
b 362 290 292 326 360 362 396 426 428 460 492
b 363 290 292 326 360 362 392 396 426 428 460 492
b 364 360 362 392 394 396 426 428
b 365 392 393 394 426
b 366 394 395 396 428
b 367 360 361 362 394
b 368 290 292 326 358 360 392 426 460 492
b 369 358 359 360 392
b 370 290 292 326 354 356 358 392 426 460 492
b 371 290 292 324 326 354 356 358
b 372 324 325 326 358
b 373 290 323 324 354 356
b 374 290 322 323 354
b 375 290 291 292 324
b 376 354 356 358 392 426 458 460 492
b 377 458 459 460 492
b 378 354 356 358 392 424 426 458 492
b 379 354 356 358 390 392 424 458 492
b 380 390 391 392 424
b 381 356 357 358 390
b 382 354 356 390 424 456 458 488 492
b 383 354 356 390 422 424 456 488
b 384 354 356 388 390 422 456 488
b 385 388 389 390 422
b 386 354 355 356 388
b 387 354 388 422 454 456 488
b 388 454 455 456 488
b 389 354 388 420 422 454 488
b 390 354 388 418 420 454 488
b 391 354 387 388 418 420
b 392 354 386 387 418
b 393 418 420 454 486 488
b 394 418 420 452 454 486
b 395 420 421 422 454
b 396 422 423 424 456
b 397 456 458 488 490 492
b 398 456 457 458 490
b 399 424 425 426 458
b 400 426 427 428 460
b 401 334 336 366 368 370 400 402
b 402 366 367 368 400
b 403 334 335 336 368
b 404 368 369 370 402
b 405 332 333 334 366
b 406 400 401 402 434
b 407 196 197 198 230
b 408 162 196 230 260 262 290 292 294
b 409 260 261 262 294
b 410 162 196 228 230 260 262 290 292
b 411 162 196 226 228 260 290 292
b 412 226 227 228 260
b 413 226 259 260 290 292
b 414 226 258 259 290
b 415 162 195 196 226 228
b 416 162 194 195 226
b 417 228 229 230 262
b 418 230 232 262 264 266 296 298
b 419 230 231 232 264
b 420 262 263 264 296
b 421 264 265 266 298
b 422 508 509 510
b 423 506 507 508
b 424 504 505 506
b 425 502 503 504
b 426 500 501 502
b 427 498 499 500
b 428 496 497 498
b 429 494 495 496
b 430 492 493 494
b 431 490 491 492
b 432 488 489 490
b 433 486 487 488
b 434 484 485 486
b 435 479 510 511
b 436 479 511 512
b 437 449 450 484
b 438 449 483 484
b 439 449 482 483
b 440 447 479 480
b 441 417 418 450
b 442 415 447 448
b 443 385 386 418
b 444 383 415 416
b 445 353 354 386
b 446 351 383 384
b 447 321 322 354
b 448 319 351 352
b 449 289 290 322
b 450 287 319 320
b 451 257 258 290
b 452 255 287 288
b 453 225 226 258
b 454 223 255 256
b 455 193 194 226
b 456 191 223 224
b 457 161 162 194
b 458 159 191 192
b 459 129 130 162
b 460 127 159 160
b 461 97 98 130
b 462 95 127 128
b 463 65 66 98
b 464 63 95 96
b 465 33 34 66
b 466 29 31 64
b 467 29 63 64
b 468 29 30 31
b 469 27 28 29
b 470 25 26 27
b 471 23 24 25
b 472 21 22 23
b 473 19 20 21
b 474 17 18 19
b 475 15 16 17
b 476 13 14 15
b 477 11 12 13
b 478 9 10 11
b 479 7 8 9
b 480 5 6 7
b 481 3 4 5
1 466
2 439
3 4
4 15
5 469
5 467
5 6
6 7
7 464
7 318
8 318
9 441
9 437
9 10
10 11
11 434
11 394
12 318
13 394
14 394
15 481
15 16
16 480
16 17
17 479
17 18
18 326
18 19
19 476
19 20
20 475
20 21
21 474
21 22
22 473
22 23
23 303
23 24
24 302
24 25
25 301
25 26
26 27
27 28
28 29
29 30
30 31
31 32
32 33
33 465
33 34
34 35
35 36
36 37
37 38
38 39
39 40
40 41
41 42
42 43
43 44
44 45
45 46
46 47
47 48
48 49
49 50
50 51
51 52
52 463
52 53
53 54
54 55
55 56
56 57
57 58
58 59
59 60
60 61
61 62
62 63
63 64
64 300
64 65
65 66
66 67
67 68
68 69
69 70
70 71
71 72
72 73
73 74
74 75
75 76
76 77
77 78
78 79
79 80
80 81
81 82
82 83
83 84
84 85
85 299
85 86
86 87
87 88
88 89
89 90
90 91
91 92
92 93
93 94
94 95
95 96
96 97
97 98
98 99
99 100
100 101
101 102
102 103
103 104
104 105
105 106
106 107
107 108
108 109
109 110
110 111
111 112
112 113
113 114
114 115
115 298
115 116
116 117
117 118
118 297
118 119
119 120
120 121
121 122
122 123
123 124
124 125
125 126
126 127
127 128
128 296
128 129
129 130
130 131
131 132
132 133
133 134
134 135
135 136
136 137
137 138
138 139
139 295
139 140
140 141
141 142
142 294
142 143
143 144
144 145
145 146
146 147
147 293
147 148
148 292
148 149
149 150
150 151
151 152
152 153
153 154
154 155
155 156
156 157
157 158
158 159
159 160
160 161
161 162
162 163
163 164
164 165
165 166
166 167
167 168
168 169
169 170
170 171
171 172
172 173
173 174
174 175
175 176
176 177
177 178
178 452
178 179
179 180
180 181
181 182
182 183
183 184
184 185
185 186
186 187
187 188
188 189
189 190
190 191
191 192
192 193
193 450
193 194
194 196
194 195
196 291
196 197
197 290
197 198
198 289
198 199
199 288
199 200
200 287
200 201
201 286
201 202
202 203
203 206
203 205
203 204
206 448
206 207
207 285
207 208
208 209
209 284
209 210
210 211
211 446
211 212
212 283
212 213
213 282
213 214
214 281
214 215
215 217
215 216
217 440
217 218
218 219
219 220
220 280
220 221
221 279
221 222
222 223
223 224
224 435
224 225
225 278
225 226
226 422
226 227
227 277
227 228
228 276
228 229
229 275
229 230
230 274
230 231
231 232
232 273
232 233
233 235
233 234
235 237
235 236
237 239
237 238
239 241
239 240
241 268
241 269
241 242
242 244
242 243
244 267
244 245
245 255
245 246
246 254
246 247
247 248
247 253
248 327
248 249
249 252
249 251
249 250
255 257
255 256
257 266
257 258
258 259
258 265
259 260
260 426
260 261
261 262
262 425
262 263
263 424
263 423
263 264
269 270
269 271
269 272
281 444
281 442
294 461
294 459
296 456
296 454
303 323
303 304
304 322
304 305
305 307
305 306
307 308
307 309
308 460
308 458
309 321
309 310
310 313
310 311
311 312
313 314
313 316
313 319
314 315
316 462
316 317
317 470
317 318
319 320
321 472
321 471
323 325
323 324
326 478
326 477
327 407
327 330
328 408
328 418
328 329
329 331
329 330
330 401
330 405
330 406
331 332
332 333
332 349
333 334
333 348
334 343
334 335
335 342
335 341
335 336
336 340
336 337
336 338
338 430
338 429
338 339
343 347
343 346
343 344
344 428
344 427
344 345
349 350
349 351
351 352
351 356
352 355
352 353
352 354
356 361
356 357
356 362
357 358
357 360
357 359
362 400
362 363
363 364
363 368
364 367
364 365
364 366
368 369
368 370
370 371
370 376
371 375
371 372
371 373
373 374
374 449
374 447
376 377
376 378
378 399
378 379
379 381
379 380
379 382
382 397
382 383
383 396
383 384
384 386
384 385
384 387
387 388
387 389
389 395
389 390
390 391
390 393
391 392
392 445
392 443
393 433
393 394
397 432
397 431
397 398
401 402
401 403
401 404
408 409
408 410
410 417
410 411
411 412
411 415
411 413
413 414
414 453
414 451
415 416
416 457
416 455
418 420
418 421
418 419
435 436
437 438
438 439
466 468
466 467
